(declare-fun temp35183_1 () (_ BitVec 64))
(declare-fun temp35183_2 () (_ BitVec 64))
(declare-fun var77740 () (_ BitVec 64))
(declare-fun k!0 () Bool)
(declare-fun ARGNAME_input_1_NAMEEND_DIM () (_ BitVec 64))
(declare-fun ARGNAME_data_format_NAMEEND_STRFMT () (_ BitVec 64))
(declare-fun temp35183_3 () (_ BitVec 64))
(declare-fun ARGNAME_input_2_NAMEEND_DIM () (_ BitVec 64))
(declare-fun var77770 () (_ BitVec 64))
(declare-fun temp35183_4 () (_ BitVec 64))
(declare-fun temp35183_5 () (_ BitVec 64))
(declare-fun ARGNAME_input_1_NAMEEND_DIMSIZE
             ()
             (Array (_ BitVec 64) (_ BitVec 64)))
(declare-fun temp35183_6 () (_ BitVec 64))
(declare-fun temp35183_7 () (_ BitVec 64))
(declare-fun temp35183_8 () (_ BitVec 64))
(declare-fun temp35183_9 () (_ BitVec 64))
(declare-fun temp35183_10 () (_ BitVec 64))
(declare-fun temp35183_11 () (_ BitVec 64))
(declare-fun temp35183_12 () (_ BitVec 64))
(declare-fun temp35183_13 () (_ BitVec 64))
(declare-fun temp35183_14 () (_ BitVec 64))
(declare-fun temp35183_15 () (_ BitVec 64))
(declare-fun temp35183_16 () (_ BitVec 64))
(declare-fun temp35183_17 () (_ BitVec 64))
(declare-fun temp35183_18 () (_ BitVec 64))
(declare-fun var77799 () (_ BitVec 64))
(declare-fun temp35183_19 () (_ BitVec 64))
(declare-fun ARGNAME_input_2_NAMEEND_DIMSIZE
             ()
             (Array (_ BitVec 64) (_ BitVec 64)))
(declare-fun temp35183_20 () (_ BitVec 64))
(declare-fun temp35183_21 () (_ BitVec 64))
(declare-fun temp35183_22 () (_ BitVec 64))
(declare-fun temp35183_23 () (_ BitVec 64))
(declare-fun temp35183_24 () (_ BitVec 64))
(declare-fun temp35183_25 () (_ BitVec 64))
(declare-fun temp35183_26 () (_ BitVec 64))
(declare-fun temp35183_27 () (_ BitVec 64))
(declare-fun temp35183_28 () (_ BitVec 64))
(declare-fun temp35183_29 () (_ BitVec 64))
(declare-fun temp35183_30 () (_ BitVec 64))
(declare-fun temp35183_31 () (_ BitVec 64))
(declare-fun temp35183_32 () (_ BitVec 64))
(declare-fun var77832 () (_ BitVec 64))
(declare-fun temp35183_33 () (_ BitVec 64))
(declare-fun temp35183_34 () (_ BitVec 64))
(declare-fun var77833 () (_ BitVec 64))
(declare-fun var77834 () (_ BitVec 64))
(declare-fun temp35183_35 () (_ BitVec 64))
(declare-fun temp35183_36 () (_ BitVec 64))
(declare-fun var275510 () (_ BitVec 64))
(declare-fun temp35183_37 () (_ BitVec 64))
(declare-fun var275528 () (_ BitVec 64))
(declare-fun temp35183_38 () (_ BitVec 64))
(declare-fun temp35183_40 () (_ BitVec 64))
(declare-fun temp35183_39 () (_ BitVec 64))
(declare-fun temp35183_42 () (_ BitVec 64))
(declare-fun temp35183_41 () (_ BitVec 64))
(declare-fun temp35183_43 () (_ BitVec 64))
(declare-fun var406582 () (_ BitVec 64))
(declare-fun temp35183_44 () (_ BitVec 64))
(declare-fun var406600 () (_ BitVec 64))
(declare-fun temp35183_45 () (_ BitVec 64))
(declare-fun temp35183_47 () (_ BitVec 64))
(declare-fun temp35183_46 () (_ BitVec 64))
(declare-fun temp35183_49 () (_ BitVec 64))
(declare-fun temp35183_48 () (_ BitVec 64))
(declare-fun temp35183_50 () (_ BitVec 64))
(declare-fun var537654 () (_ BitVec 64))
(declare-fun temp35183_51 () (_ BitVec 64))
(declare-fun var537672 () (_ BitVec 64))
(declare-fun temp35183_52 () (_ BitVec 64))
(declare-fun temp35183_54 () (_ BitVec 64))
(declare-fun temp35183_53 () (_ BitVec 64))
(declare-fun temp35183_56 () (_ BitVec 64))
(declare-fun temp35183_55 () (_ BitVec 64))
(declare-fun temp35183_58 () (_ BitVec 64))
(declare-fun temp35183_57 () (_ BitVec 64))
(declare-fun temp35183_60 () (_ BitVec 64))
(declare-fun temp35183_59 () (_ BitVec 64))
(declare-fun temp35183_62 () (_ BitVec 64))
(declare-fun temp35183_61 () (_ BitVec 64))
(declare-fun temp35183_63 () (_ BitVec 64))
(declare-fun var730187 () (_ BitVec 64))
(declare-fun var730166 () (_ BitVec 64))
(declare-fun var664598 () (_ BitVec 64))
(declare-fun temp35183_64 () (_ BitVec 64))
(declare-fun temp35183_65 () (_ BitVec 64))
(declare-fun var795723 () (_ BitVec 64))
(declare-fun var795702 () (_ BitVec 64))
(declare-fun var664608 () (_ BitVec 64))
(declare-fun temp35183_66 () (_ BitVec 64))
(declare-fun temp35183_67 () (_ BitVec 64))
(declare-fun var861259 () (_ BitVec 64))
(declare-fun var861238 () (_ BitVec 64))
(declare-fun var664611 () (_ BitVec 64))
(declare-fun temp35183_68 () (_ BitVec 64))
(declare-fun temp35183_69 () (_ BitVec 64))
(declare-fun var1057842 () (_ BitVec 64))
(declare-fun temp35183_70 () (_ BitVec 64))
(declare-fun var1123378 () (_ BitVec 64))
(declare-fun temp35183_71 () (_ BitVec 64))
(declare-fun var1188914 () (_ BitVec 64))
(declare-fun temp35183_72 () (_ BitVec 64))
(declare-fun var78184 () (_ BitVec 64))
(declare-fun temp35183_74 () (_ BitVec 64))
(declare-fun temp35183_73 () (_ BitVec 64))
(declare-fun temp35183_76 () (_ BitVec 64))
(declare-fun temp35183_75 () (_ BitVec 64))
(assert (or (= ARGNAME_data_format_NAMEEND_STRFMT #x0000000000000000)
    (= ARGNAME_data_format_NAMEEND_STRFMT #x0000000000000001)
    (= ARGNAME_data_format_NAMEEND_STRFMT #x0000000000000002)
    (= ARGNAME_data_format_NAMEEND_STRFMT #x0000000000000003)
    (= ARGNAME_data_format_NAMEEND_STRFMT #x0000000000000004)
    (= ARGNAME_data_format_NAMEEND_STRFMT #x0000000000000005)))
(assert (= temp35183_1 #x0000000000000005))
(assert (= var77740
   (ite (= ARGNAME_input_1_NAMEEND_DIM temp35183_1)
        #x0000000000000001
        #x0000000000000000)))
(assert (= temp35183_2 #x0000000000000001))
(assert (= var77740 temp35183_2))
(assert (= temp35183_3 #x0000000000000005))
(assert (= var77770
   (ite (= ARGNAME_input_2_NAMEEND_DIM temp35183_3)
        #x0000000000000001
        #x0000000000000000)))
(assert (= temp35183_4 #x0000000000000001))
(assert (= var77770 temp35183_4))
(assert (= temp35183_5 #x0000000000000000))
(assert (= temp35183_6 (select ARGNAME_input_1_NAMEEND_DIMSIZE temp35183_5)))
(assert (= temp35183_7 #x0000000000000001))
(assert (= temp35183_8 (select ARGNAME_input_1_NAMEEND_DIMSIZE temp35183_7)))
(assert (= temp35183_9 #x0000000000000002))
(assert (= temp35183_10 (select ARGNAME_input_1_NAMEEND_DIMSIZE temp35183_9)))
(assert (= temp35183_11 #x0000000000000003))
(assert (= temp35183_12 (select ARGNAME_input_1_NAMEEND_DIMSIZE temp35183_11)))
(assert (= temp35183_13 #x0000000000000004))
(assert (= temp35183_14 (select ARGNAME_input_1_NAMEEND_DIMSIZE temp35183_13)))
(assert (= temp35183_15 #x0000000000000005))
(assert (= temp35183_16 (select ARGNAME_input_1_NAMEEND_DIMSIZE temp35183_15)))
(assert (= temp35183_17 #x0000000000000003))
(assert (= temp35183_18 (select ARGNAME_input_1_NAMEEND_DIMSIZE temp35183_17)))
(assert (= var77799 temp35183_18))
(assert (= temp35183_19 #x0000000000000000))
(assert (= temp35183_20 (select ARGNAME_input_2_NAMEEND_DIMSIZE temp35183_19)))
(assert (= temp35183_21 #x0000000000000001))
(assert (= temp35183_22 (select ARGNAME_input_2_NAMEEND_DIMSIZE temp35183_21)))
(assert (= temp35183_23 #x0000000000000002))
(assert (= temp35183_24 (select ARGNAME_input_2_NAMEEND_DIMSIZE temp35183_23)))
(assert (= temp35183_25 #x0000000000000003))
(assert (= temp35183_26 (select ARGNAME_input_2_NAMEEND_DIMSIZE temp35183_25)))
(assert (= temp35183_27 #x0000000000000004))
(assert (= temp35183_28 (select ARGNAME_input_2_NAMEEND_DIMSIZE temp35183_27)))
(assert (= temp35183_29 #x0000000000000005))
(assert (= temp35183_30 (select ARGNAME_input_2_NAMEEND_DIMSIZE temp35183_29)))
(assert (= temp35183_31 #x0000000000000004))
(assert (= temp35183_32 (select ARGNAME_input_2_NAMEEND_DIMSIZE temp35183_31)))
(assert (= var77832 temp35183_32))
(assert (= temp35183_33 #x0000000000000004))
(assert (= temp35183_34 (select ARGNAME_input_1_NAMEEND_DIMSIZE temp35183_33)))
(assert (= var77833 temp35183_34))
(assert (= var77834 (ite (= var77832 var77833) #x0000000000000001 #x0000000000000000)))
(assert (= temp35183_35 #x0000000000000001))
(assert (= var77834 temp35183_35))
(assert (= temp35183_36 #x0000000000000001))
(assert (= var275510 temp35183_36))
(assert (= temp35183_37 #x0000000000000001))
(assert (= var275528
   (ite (bvslt var275510 temp35183_37) #x0000000000000001 #x0000000000000000)))
(assert (= temp35183_38 #x0000000000000000))
(assert (= var275528 temp35183_38))
(assert (= temp35183_40 #x0000000000000000))
(assert (= temp35183_39 temp35183_40))
(assert (= temp35183_42 #x0000000000000000))
(assert (= temp35183_41 temp35183_42))
(assert (= temp35183_43 #x0000000000000001))
(assert (= var406582 temp35183_43))
(assert (= temp35183_44 #x0000000000000001))
(assert (= var406600
   (ite (bvslt var406582 temp35183_44) #x0000000000000001 #x0000000000000000)))
(assert (= temp35183_45 #x0000000000000000))
(assert (= var406600 temp35183_45))
(assert (= temp35183_47 #x0000000000000000))
(assert (= temp35183_46 temp35183_47))
(assert (= temp35183_49 #x0000000000000000))
(assert (= temp35183_48 temp35183_49))
(assert (= temp35183_50 #x0000000000000001))
(assert (= var537654 temp35183_50))
(assert (= temp35183_51 #x0000000000000001))
(assert (= var537672
   (ite (bvslt var537654 temp35183_51) #x0000000000000001 #x0000000000000000)))
(assert (= temp35183_52 #x0000000000000000))
(assert (= var537672 temp35183_52))
(assert (= temp35183_54 #x0000000000000000))
(assert (= temp35183_53 temp35183_54))
(assert (= temp35183_56 #x0000000000000000))
(assert (= temp35183_55 temp35183_56))
(assert (= temp35183_58 #x00000000000000ff))
(assert (= temp35183_57 temp35183_58))
(assert (= temp35183_60 #x00000000000000ff))
(assert (= temp35183_59 temp35183_60))
(assert (= temp35183_62 #x00000000000000ff))
(assert (= temp35183_61 temp35183_62))
(assert (= temp35183_63 #x0000000000000000))
(assert (= var730187 temp35183_63))
(assert (= var730166 var730187))
(assert (= var664598 var730166))
(assert (= temp35183_64 #x0000000000000000))
(assert (= var664598 temp35183_64))
(assert (= temp35183_65 #x0000000000000000))
(assert (= var795723 temp35183_65))
(assert (= var795702 var795723))
(assert (= var664608 var795702))
(assert (= temp35183_66 #x0000000000000000))
(assert (= var664608 temp35183_66))
(assert (= temp35183_67 #x0000000000000000))
(assert (= var861259 temp35183_67))
(assert (= var861238 var861259))
(assert (= var664611 var861238))
(assert (= temp35183_68 #x0000000000000000))
(assert (= var664611 temp35183_68))
(assert (= temp35183_69 #x0000000000008000))
(assert (= var1057842 temp35183_69))
(assert (= temp35183_70 #x0000000000040000))
(assert (= var1123378 temp35183_70))
(assert (= temp35183_71 #x0000000000200000))
(assert (= var1188914 temp35183_71))
(assert (= temp35183_72 #x0000000000000001))
(assert (= var78184 temp35183_72))
(assert (= temp35183_74 #x0000000000000001))
(assert (= temp35183_73 temp35183_74))
(assert (= temp35183_76 #x0000000000000001))
(assert (= temp35183_75 temp35183_76))
(model-add temp35183_1 () (_ BitVec 64) #x0000000000000005)
(model-add temp35183_2 () (_ BitVec 64) #x0000000000000001)
(model-add var77740 () (_ BitVec 64) #x0000000000000001)
(model-del k!0)
(model-add ARGNAME_input_1_NAMEEND_DIM
           ()
           (_ BitVec 64)
           (ite k!0 #x0000000000000005 (bvnot #x0000000000000005)))

